0 61 
1 65 
2 65 
3 67 
4 66 
5 62 
6 62 
7 61 
8 60 
9 60 
10 59 
11 56 
12 53 
13 52 
14 50 
15 51 
16 50 
17 49 
18 46 
19 45 
20 43 
21 41 
22 38 
23 37 
24 38 
25 37 
26 35 
27 34 
28 34 
29 32 
30 31 
31 31 
32 29 
33 26 
34 24 
35 23 
36 22 
37 21 
38 20 
39 19 
40 18 
41 18 
42 17 
43 15 
44 13 
45 16 
46 15 
47 16 
48 15 
49 15 
50 14 
51 13 
52 13 
53 12 
54 11 
55 11 
56 10 
57 8 
58 8 
59 9 
60 7 
61 4 
62 1 
63 1 
64 0 
65 0 

